c --- [ banner ] -------------------------------------------------------------
c 
c CaDiCaL Radically Simplified CDCL SAT Solver
c Copyright (c) 2016-2021 A. Biere, M. Fleury, N. Froleyks
c 
c Version 1.5.2 a5f15211db36c3956764e18194dd5bd63bf3b5e6
c g++ (GCC) 9.3.0 -Wall -Wextra -O3 -DNDEBUG
c Fri Oct 21 01:27:37 EDT 2022 Linux gra-login3 3.10.0-1160.66.1.el7.x86_64 x86_64
c 
c --- [ limit ] --------------------------------------------------------------
c 
c setting conflict limit to 200000 conflicts (due to '200000')
c 
c --- [ parsing input ] ------------------------------------------------------
c 
c reading DIMACS file from '33.cubes738.adj'
c opening file to read '33.cubes738.adj'
c found 'p cnf 6160 1595477' header
c parsed 1595477 clauses in 18.91 seconds process time
c closing file '33.cubes738.adj'
c after reading 1457566788 bytes 1390.0 MB
c 
c --- [ options ] ------------------------------------------------------------
c 
c all options are set to their default value
c 
c --- [ solving ] ------------------------------------------------------------
c 
c time measured in process time since initialization
c 
c  seconds    reductions  redundant   irredundant
c          MB     restarts       trail       variables
c            level   conflicts       glue         remaining
c 
c * 18.91 1359  0 0   0    0    0  0% 0 1595422 2372 39%
c { 19.41 1382  0 0   0    0    0  0% 0 1595422 2372 39%
c i 20.06 1410 1097 0   0   14   13 35% 1 1595422 2356 38%
c i 23.41 1478 239 0   8  118   63 25% 12 1595422 2342 38%
c i 23.90 1480 230 0   9  127   68 25% 14 1595422 2332 38%
c i 25.36 1492 204 0  16  156   93 25% 19 1595422 2327 38%
c i 25.90 1495 187 0  22  177  111 25% 18 1595422 2326 38%
c i 25.96 1496 185 0  23  180  113 25% 18 1595422 2325 38%
c i 27.14 1503 157 0  27  234  158 26% 18 1595422 2324 38%
c i 27.14 1503 157 0  27  235  158 26% 18 1595422 2323 38%
c i 27.14 1503 156 0  27  236  158 26% 18 1595422 2322 38%
c i 27.21 1503 153 0  28  244  163 26% 18 1595422 2321 38%
c i 27.24 1504 152 0  29  246  164 26% 18 1595422 2320 38%
c i 27.30 1504 150 0  29  249  166 26% 18 1595422 2319 38%
c i 27.30 1504 148 0  29  254  170 26% 18 1595422 2318 38%
c i 27.30 1504 147 0  29  255  170 26% 18 1595422 2317 38%
c i 27.30 1504 147 0  29  256  170 26% 18 1595422 2316 38%
c i 27.30 1504 147 0  29  257  170 26% 18 1595422 2315 38%
c i 27.30 1504 146 0  29  258  170 26% 17 1595422 2314 38%
c i 27.30 1504 146 0  29  259  170 26% 17 1595422 2313 38%
c 
c  seconds     reductions  redundant    irredundant
c          MB      restarts       trail        variables
c             level   conflicts       glue          remaining
c 
c i 27.30 1504 145 0  29  260  170 26% 17 1595422 2312 38%
c i 27.30 1504 145 0  29  261  170 26% 17 1595422 2311 38%
c i 27.30 1504 144 0  29  262  170 26% 17 1595422 2310 38%
c i 27.30 1504 144 0  29  263  170 26% 17 1595422 2309 37%
c i 27.30 1504 143 0  29  264  170 26% 17 1595422 2308 37%
c i 27.30 1504 143 0  29  265  170 26% 17 1595422 2307 37%
c i 27.30 1504 142 0  29  266  170 26% 17 1595422 2306 37%
c i 27.33 1504 140 0  29  271  174 26% 17 1595422 2305 37%
c - 32.12 1452 140 1  32  300  199 26% 18 297222 2305 37%
c i 32.33 1453 138 1  32  310  204 26% 18 297222 2304 37%
c i 32.62 1411 129 1  35  343  230 26% 18 297222 2303 37%
c i 32.65 1411 128 1  35  346  232 26% 18 297222 2302 37%
c i 32.65 1411 127 1  35  347  232 26% 18 297222 2301 37%
c i 32.65 1411 127 1  35  348  232 26% 18 297222 2300 37%
c i 32.65 1411 126 1  35  349  232 26% 17 297222 2299 37%
c i 32.65 1411 126 1  35  350  232 26% 17 297222 2298 37%
c i 32.65 1411 126 1  35  351  232 26% 17 297222 2297 37%
c i 32.77 1411 121 1  35  373  252 26% 17 297222 2296 37%
c i 33.09 1411 117 1  35  404  281 26% 17 297222 2295 37%
c i 33.12 1411 117 1  35  410  285 26% 17 297222 2294 37%
c 
c  seconds     reductions  redundant   irredundant
c          MB      restarts       trail       variables
c             level   conflicts       glue         remaining
c 
c i 33.12 1411 116 1  35  411  285 26% 17 297222 2293 37%
c i 33.12 1411 116 1  35  412  285 26% 17 297222 2292 37%
c i 33.17 1411 115 1  35  427  298 26% 17 297222 2291 37%
c i 33.39 1411 111 1  38  453  323 26% 17 297222 2290 37%
c i 33.73 1411 109 1  49  492  346 26% 18 297222 2289 37%
c i 33.81 1410 108 1  51  498  351 26% 18 297222 2288 37%
c i 33.82 1410 108 1  52  502  354 26% 19 297222 2287 37%
c i 33.82 1410 107 1  52  503  354 26% 19 297222 2286 37%
c i 34.05 1411 102 1  55  544  377 25% 18 297222 2285 37%
c i 34.06 1411 102 1  55  545  377 25% 18 297222 2284 37%
c i 34.11 1410 102 1  55  549  380 25% 18 297222 2283 37%
c i 34.12 1410 102 1  55  553  383 25% 18 297222 2282 37%
c i 34.14 1411 101 1  55  555  384 25% 18 297222 2281 37%
c i 34.15 1411 102 1  55  557  384 25% 18 297222 2279 37%
c i 34.22 1411 103 1  57  574  396 25% 19 297222 2274 37%
c i 34.31 1411 102 1  61  587  402 25% 19 297222 2273 37%
c i 34.31 1411 102 1  61  588  402 25% 19 297222 2272 37%
c i 34.31 1411 101 1  62  589  402 25% 19 297222 2271 37%
c i 34.31 1411 101 1  62  590  402 25% 19 297222 2270 37%
c i 34.32 1411 101 1  63  592  403 25% 19 297222 2269 37%
c 
c  seconds    reductions  redundant   irredundant
c          MB     restarts       trail       variables
c            level   conflicts       glue         remaining
c 
c i 34.73 1411 97 1  65  638  443 25% 19 297222 2268 37%
c i 34.78 1411 93 1  65  663  462 26% 18 297222 2267 37%
c i 34.91 1411 90 1  65  697  479 26% 18 297222 2266 37%
c i 34.91 1411 89 1  65  699  480 26% 18 297222 2265 37%
c i 34.91 1411 89 1  65  701  481 26% 18 297222 2264 37%
c i 34.91 1411 89 1  65  702  481 26% 18 297222 2263 37%
c i 34.94 1411 89 1  65  705  483 26% 18 297222 2262 37%
c i 35.25 1411 81 1  65  797  540 26% 17 297222 2261 37%
c i 35.25 1411 80 1  65  798  540 26% 17 297222 2260 37%
c } 35.47 1411 68 1  65 1000  670 27% 17 297222 2260 37%
c [ 35.47 1411  0 1  65 1000  670  0% 0 297222 2260 37%
c O 35.48 1411 10 1  65 1002  672 23% 6 297222 2260 37%
c i 35.65 1411 14 1  65 1024  690 27% 8 297222 2259 37%
c i 35.68 1411 18 1  65 1031  696 27% 13 297222 2258 37%
c i 35.68 1411 18 1  65 1033  697 27% 13 297222 2257 37%
c i 35.77 1411 25 1  65 1053  715 28% 19 297222 2256 37%
c i 36.01 1411 44 1  65 1151  801 30% 30 297222 2255 37%
c i 36.02 1411 43 1  65 1159  806 30% 29 297222 2254 37%
c - 36.62 1522 40 2  65 1183  740 30% 28 297074 2254 37%
c i 36.64 1522 40 2  65 1186  742 30% 28 297074 2253 37%
c 
c  seconds    reductions  redundant   irredundant
c          MB     restarts       trail       variables
c            level   conflicts       glue         remaining
c 
c i 36.64 1522 39 2  65 1189  744 30% 27 297074 2252 37%
c i 36.68 1522 38 2  65 1196  747 30% 27 297074 2251 37%
c i 36.70 1522 37 2  65 1211  759 30% 26 297074 2250 37%
c i 36.72 1522 37 2  65 1216  762 30% 26 297074 2249 37%
c i 36.73 1522 36 2  65 1226  769 29% 25 297074 2248 36%
c i 36.74 1522 36 2  65 1229  769 29% 25 297074 2247 36%
c i 36.79 1522 34 2  65 1251  786 30% 24 297074 2246 36%
c i 36.87 1522 31 2  65 1316  819 30% 23 297074 2245 36%
c i 36.87 1522 31 2  65 1322  821 30% 23 297074 2244 36%
c i 36.91 1522 29 2  65 1376  859 30% 22 297074 2243 36%
c i 37.00 1522 26 2  65 1544  979 30% 20 297074 2242 36%
c i 37.05 1522 25 2  65 1637 1045 30% 20 297074 2241 36%
c i 37.21 1522 25 2  65 1967 1233 31% 20 297074 2240 36%
c - 37.80 1519 24 3  66 2508 1148 31% 19 297032 2240 36%
c i 38.26 1519 22 3  66 2909 1408 51% 18 297032 2239 36%
c ] 38.34 1519 23 3  66 3001 1468 51% 19 297032 2239 36%
c { 38.34 1519 68 3  66 3001 1468 73% 17 297032 2239 36%
c F 38.35 1519 68 3  66 3007 1472 73% 17 297032 2239 36%
c i 38.72 1519 62 3  73 3172 1588 69% 17 297032 2238 36%
c i 38.86 1519 61 3  79 3235 1631 67% 17 297032 2237 36%
c 
c  seconds    reductions  redundant   irredundant
c          MB     restarts       trail       variables
c            level   conflicts       glue         remaining
c 
c i 38.90 1519 61 3  81 3248 1643 67% 17 297032 2236 36%
c i 38.93 1519 61 3  82 3261 1651 66% 17 297032 2235 36%
c i 38.99 1519 61 3  83 3278 1665 66% 17 297032 2234 36%
c i 40.11 1519 60 3 141 3506 1858 62% 18 297032 2233 36%
c i 40.15 1519 61 3 144 3518 1869 61% 18 297032 2232 36%
c i 40.35 1519 61 3 152 3551 1897 61% 19 297032 2231 36%
c i 40.42 1519 61 3 154 3557 1902 61% 19 297032 2230 36%
c i 40.46 1519 61 3 158 3572 1912 61% 19 297032 2229 36%
c i 40.53 1519 60 3 166 3601 1932 60% 19 297032 2228 36%
c i 40.54 1519 60 3 167 3603 1933 60% 19 297032 2227 36%
c i 41.10 1519 60 3 192 3705 2023 59% 20 297032 2226 36%
c i 41.17 1519 60 3 196 3719 2036 59% 20 297032 2225 36%
c i 41.19 1519 61 3 198 3733 2047 58% 20 297032 2224 36%
c i 41.98 1519 59 3 254 4117 2365 56% 21 297032 2223 36%
c - 42.47 1412 57 4 280 4275 1896 55% 22 296985 2223 36%
c } 42.68 1412 55 4 280 4403 1968 55% 21 296985 2223 36%
c 1 42.68 1412 55 4 280 4403 1968 55% 21 296985 2223 36%
c 
c --- [ writing output ] -----------------------------------------------------
c 
c writing simplified CNF to DIMACS file 'simp/33.cubes738.adj.simp1'
c * 42.68 1412 55 4 280 4403 1968 55% 21 296985 2223 36%
c opening file to write 'simp/33.cubes738.adj.simp1'
c writing 'p cnf 6160 296985' header
c closing file 'simp/33.cubes738.adj.simp1'
c after writing 116744694 bytes 111.3 MB
c wrote 296985 clauses in 0.86 seconds process time
c 
c --- [ writing extension ] --------------------------------------------------
c 
c writing extension stack to 'simp/33.cubes738.adj.ext1'
c opening file to write 'simp/33.cubes738.adj.ext1'
c closing file 'simp/33.cubes738.adj.ext1'
c after writing 11868 bytes 0.0 MB
c wrote 793 witnesses in 0.00 seconds process time
c 
c --- [ result ] -------------------------------------------------------------
c 
s SATISFIABLE
c 
c --- [ run-time profiling ] -------------------------------------------------
c 
c process time taken by individual solving procedures
c (percentage relative to process time for solving)
c 
c        23.77  100.00% search
c        20.40   85.82% unstable
c        18.91   79.54% parse
c         2.87   12.08% stable
c         0.50    2.10% lucky
c         0.00    0.00% simplify
c   =================================
c        23.77   54.59% solve
c 
c last line shows process time for solving
c (percentage relative to total process time)
c 
c --- [ statistics ] ---------------------------------------------------------
c 
c chronological:              1236        28.07 %  of conflicts
c conflicts:                  4403       185.24    per second
c decisions:                 30107      1266.65    per second
c fixed:                       793        12.87 %  of all variables
c learned:                    4277        97.14 %  per conflict
c learned_lits:             635661       100.00 %  learned literals
c minimized:                     0         0.00 %  learned literals
c shrunken:                 391262        61.55 %  learned literals
c minishrunken:              41291         6.50 %  learned literals
c propagations:             735145         0.03 M  per second
c reduced:                    1025        23.28 %  per conflict
c rephased:                      2      2201.50    interval
c restarts:                    280        15.72    interval
c stabilizing:                   1        45.45 %  of conflicts
c subsumed:                   1168         0.04 %  of all clauses
c 
c seconds are measured in process time for solving
c 
c --- [ resources ] ----------------------------------------------------------
c 
c total process time since initialization:        43.54    seconds
c total real time since initialization:           43.83    seconds
c maximum resident set size of process:         1630.14    MB
c 
c --- [ shutting down ] ------------------------------------------------------
c 
c exit 10
WARNING! DIMACS header mismatch: wrong number of variables.
============================[ Problem Statistics ]=============================
|                                                                             |
|  Number of variables:          6120                                         |
|  Number of clauses:          296985                                         |
|  Parse time:                   1.57 s                                       |
|  Simplification time:          0.03 s                                       |
|                                                                             |
============================[ Search Statistics ]====================================================
| Conflicts |          ORIGINAL         |          LEARNT          | Num Sols |      SUBGRAPHS      |
|           |    Vars  Clauses Literals |    Limit  Clauses Lit/Cl |          | Canonical Noncanon. |
=====================================================================================================
|       105 |    6026   296990 25930553 |     2000      104     42 |        0 |        22         5 |
|       257 |    6026   296992 25930608 |     2000      256     64 |        0 |        28         7 |
|       501 |    6024   297011 25931036 |     2000      498     70 |        0 |        56        26 |
|       857 |    6023   297030 25931407 |     2000      853     77 |        0 |        72        45 |
|      1371 |    6022   297038 25931797 |     2000     1366     89 |        0 |        78        53 |
|      2228 |    6020   297136 25933866 |     3598     1225     48 |        0 |       143       151 |
|      3632 |    6015   297401 25939969 |     3598     2625     59 |        0 |       245       416 |
|      5462 |    6015   297523 25942709 |     4997     2659     42 |        0 |       359       538 |
|      8321 |    6015   297820 25948496 |     6303     3024     37 |        0 |       628       835 |
|     12584 |    6015   298239 25957930 |     7557     4141     34 |        0 |       880      1254 |
|     18987 |    6014   298876 25969329 |     8780     6767     54 |        0 |      1129      1891 |
|     28616 |    6014   299856 25988226 |    11203     7019     45 |        0 |      1475      2871 |
|     42160 |    6014   300426 26001773 |    13604     8764     52 |        0 |      1910      3441 |
|     63578 |    6014   302383 26035745 |    16010    15988     64 |        0 |      2971      5398 |
|     96394 |    6014   306007 26092341 |    20802    13196     43 |        0 |      4532      9022 |
|    147538 |    6014   313362 26213135 |    25609    19147     52 |        0 |      7370     16377 |
|    221457 |    6014   321597 26331099 |    31610    23067     50 |        0 |     11718     24612 |
|    339521 |    6014   341099 26600849 |    38809    37330     46 |        0 |     17849     44150 |
|    536739 |    5998   390524 27218871 |    49614    38353     42 |        0 |     31774     93579 |
=====================================================================================================
Number of solutions   : 0
Canonical subgraphs   : 39623          (48 /sec)
          order  3    : 1              (200000 /sec)
          order  4    : 1              (500000 /sec)
          order  5    : 1              (200000 /sec)
          order  6    : 1              (55556 /sec)
          order  7    : 2              (10152 /sec)
          order  8    : 6              (2604 /sec)
          order  9    : 15             (593 /sec)
          order 10    : 56             (177 /sec)
          order 11    : 314            (90 /sec)
          order 12    : 1777           (65 /sec)
          order 13    : 4943           (61 /sec)
          order 14    : 6514           (58 /sec)
          order 15    : 11125          (48 /sec)
          order 16    : 7890           (40 /sec)
          order 17    : 5454           (40 /sec)
          order 18    : 1072           (36 /sec)
          order 19    : 338            (38 /sec)
          order 20    : 64             (53 /sec)
          order 21    : 49             (66 /sec)
          order 22    : 0              (-nan /sec)
Noncanonical subgraphs: 113031         (472 /sec)
          order  3    : 0              (-nan /sec)
          order  4    : 0              (-nan /sec)
          order  5    : 0              (-nan /sec)
          order  6    : 0              (-nan /sec)
          order  7    : 0              (-nan /sec)
          order  8    : 0              (-nan /sec)
          order  9    : 0              (-nan /sec)
          order 10    : 0              (-nan /sec)
          order 11    : 0              (-nan /sec)
          order 12    : 0              (-nan /sec)
          order 13    : 11729          (3095 /sec)
          order 14    : 83499          (456 /sec)
          order 15    : 13083          (432 /sec)
          order 16    : 4634           (220 /sec)
          order 17    : 21             (177 /sec)
          order 18    : 12             (470 /sec)
          order 19    : 3              (37975 /sec)
          order 20    : 0              (-nan /sec)
          order 21    : 0              (-nan /sec)
Canonicity checking   : 830.271 s
Noncanonicity checking: 239.361 s
Total canonicity time : 1069.63 s
database reductions   : 44
restarts              : 1467
conflicts             : 675042         (452 /sec)
decisions             : 986928         (0.00 % random) (660 /sec)
propagations          : 80731815       (54012 /sec)
conflict literals     : 56668258       (53.97 % deleted)
actual reward         : 0.114280
Memory used           : 381.00 MB
CPU time              : 1494.69 s

UNSATISFIABLE
